c Output_time 26.03.2020 18:13:25_+0100 1585242805203606956
c ** Program information **
c program_name                          "QBRG_debug"
c version                               "0.3.20"
c date                                  "25.3.2020"
c gid_id                                "673970833836058123f633335630c185360d632e"
c author                                "Oliver Kullmann"
c url                                   "https://github.com/OKullmann/oklibrary/blob/master/Satisfiability/Transformers/Generators/Random/QBRG.cpp"
c ** Machine information **
c machine_name                          "chyna-Lenovo-G50-70"
c bogomips                              3791.08
c ** Compilation information **
c compiler_version                      "g++ 7.5.0"
c compilation_date                      "Mar_26_2020 11:16:30"
c compilation_options                   "--std=c++17 -pedantic -fmax-errors=5 -Wall -Wextra -g -D_GLIBCXX_DEBUG"
c NDEBUG                                0
c OPTIMIZE                              0
c ** Parameters **
c command-line                          "./QBRG_debug" "e40 a40 40" "485*1,1|2-2,1|3-3,1" "" "1,t" ""
c output                                "QuBlRaGe_120_485_1585242805168174661.qdimacs"
c options                               "filtered,renamed"
c num_quantifier_blocks                 3
c  quantifier_blocks                    1:e1-40 2:a41-80 3:e81-120
c num_clause-blocks                     1
c  clause-blocks                        485 * {1-40,1,1/2} | {41-80,1,1/2} | {81-120,1,1/2}
c num_e-seeds                           30+2=32
c  e-seeds                              1 0 1 0 4 120 2 40 1 40 0 40 1 485 3 1 1 1 1 2 2 2 1 1 2 3 3 1 1 2 1 1585242805168173898
p cnf 120 485
e 1 2 3 4 5 6 7 8 9 10 11 12 13 14 15 16 17 18 19 20 21 22 23 24 25 26 27 28 29 30 31 32 33 34 35 36 37 38 39 40 0
a 41 42 43 44 45 46 47 48 49 50 51 52 53 54 55 56 57 58 59 60 61 62 63 64 65 66 67 68 69 70 71 72 73 74 75 76 77 78 79 80 0
e 81 82 83 84 85 86 87 88 89 90 91 92 93 94 95 96 97 98 99 100 101 102 103 104 105 106 107 108 109 110 111 112 113 114 115 116 117 118 119 120 0
21 43 -81 0
-37 47 -81 0
-5 52 -81 0
24 -64 -81 0
-22 72 -81 0
26 -73 -81 0
-6 77 -81 0
35 78 -81 0
-26 -62 81 0
37 75 81 0
21 -76 81 0
35 78 81 0
7 44 -82 0
26 54 -82 0
-36 57 -82 0
22 -59 -82 0
3 -67 -82 0
-34 44 82 0
8 -61 82 0
12 -62 82 0
23 -73 82 0
-25 80 82 0
4 -52 -83 0
-7 -54 -83 0
-21 57 -83 0
-18 59 -83 0
39 63 -83 0
12 42 83 0
-14 -50 83 0
18 51 83 0
-29 -60 83 0
-28 -76 83 0
8 -78 83 0
2 -48 -84 0
20 54 -84 0
30 -68 -84 0
-22 75 -84 0
25 78 -84 0
-32 41 84 0
-15 60 84 0
26 -65 84 0
6 -70 84 0
-33 -70 84 0
-19 72 84 0
-15 -42 -85 0
4 43 -85 0
-13 -60 -85 0
33 60 -85 0
-29 -61 -85 0
25 -62 -85 0
25 68 -85 0
27 -76 -85 0
21 41 85 0
18 -51 85 0
19 -52 85 0
-25 -53 85 0
30 54 85 0
15 -59 85 0
6 63 85 0
34 72 85 0
15 -74 85 0
37 61 -86 0
-29 65 -86 0
-5 68 -86 0
12 -70 -86 0
-2 -74 -86 0
16 79 -86 0
33 -41 86 0
-23 -49 86 0
-3 58 86 0
-37 -74 86 0
1 -76 86 0
-18 79 86 0
-33 46 -87 0
2 48 -87 0
18 52 -87 0
26 52 -87 0
26 -62 -87 0
1 72 -87 0
-6 -76 -87 0
5 -78 -87 0
29 78 -87 0
18 -47 87 0
22 -50 87 0
-24 55 87 0
4 62 87 0
-17 65 87 0
-24 65 87 0
-28 68 87 0
-27 74 87 0
11 41 -88 0
-13 -45 -88 0
-29 -56 -88 0
-5 -62 -88 0
36 68 -88 0
3 -71 -88 0
29 -71 -88 0
-18 77 -88 0
-36 77 -88 0
26 -80 -88 0
24 42 88 0
5 -46 88 0
37 -46 88 0
6 48 88 0
27 48 88 0
-14 -49 88 0
29 54 88 0
-3 73 88 0
21 76 88 0
8 43 -89 0
-16 58 -89 0
36 62 -89 0
-28 -64 -89 0
38 -74 -89 0
13 -42 89 0
5 42 89 0
-37 -48 89 0
17 59 89 0
-9 -65 89 0
19 70 89 0
-27 73 89 0
-21 -74 89 0
20 74 89 0
22 -77 89 0
-25 77 89 0
28 -55 -90 0
-17 -62 -90 0
34 -62 -90 0
-32 -64 -90 0
8 65 -90 0
29 -69 -90 0
37 72 -90 0
15 -74 -90 0
13 76 -90 0
-15 -42 90 0
-4 -54 90 0
-25 62 90 0
-39 64 90 0
21 76 90 0
-36 -79 90 0
-11 51 -91 0
-1 52 -91 0
-19 -57 -91 0
-20 -62 -91 0
-27 -77 -91 0
7 -80 -91 0
8 44 91 0
-6 -48 91 0
33 51 91 0
18 58 91 0
-38 -65 91 0
-31 69 91 0
5 70 91 0
-20 73 91 0
-40 -41 -92 0
-27 -44 -92 0
10 -48 -92 0
-24 49 -92 0
27 65 -92 0
-5 -79 -92 0
28 79 -92 0
1 42 92 0
-32 -58 92 0
-21 66 92 0
-20 70 92 0
-21 44 -93 0
-22 -47 -93 0
14 51 -93 0
11 -58 -93 0
-1 -59 -93 0
39 70 -93 0
30 -72 -93 0
32 73 -93 0
-37 75 -93 0
36 -80 -93 0
13 80 -93 0
-18 -41 93 0
23 -49 93 0
-20 -55 93 0
-1 65 93 0
3 -76 93 0
32 41 -94 0
8 49 -94 0
-39 -53 -94 0
29 -54 -94 0
-16 55 -94 0
-28 -58 -94 0
-8 63 -94 0
2 -74 -94 0
-17 79 -94 0
9 76 94 0
14 45 -95 0
34 -60 -95 0
-19 -64 -95 0
-22 47 95 0
30 -48 95 0
39 60 95 0
-5 -69 95 0
-37 72 95 0
-34 44 -96 0
26 47 -96 0
-3 50 -96 0
-39 51 -96 0
1 -58 -96 0
7 61 -96 0
-24 62 -96 0
28 62 -96 0
18 65 -96 0
11 -66 -96 0
35 69 -96 0
-26 -73 -96 0
18 -45 96 0
-38 -45 96 0
25 -49 96 0
-40 -67 96 0
-24 -69 96 0
-21 78 96 0
20 -41 -97 0
7 -44 -97 0
-5 -45 -97 0
18 -48 -97 0
1 67 -97 0
-17 -43 97 0
-11 -48 97 0
-32 -51 97 0
22 55 -98 0
-38 68 -98 0
-28 72 -98 0
33 -76 -98 0
13 -79 -98 0
-36 -79 -98 0
-36 -44 98 0
-11 55 98 0
-32 55 98 0
3 74 98 0
-31 75 98 0
-39 80 98 0
-15 42 -99 0
10 -46 -99 0
29 51 -99 0
6 54 -99 0
38 -74 -99 0
28 -42 99 0
-12 60 99 0
-35 66 99 0
10 -67 99 0
2 -74 99 0
-5 -49 -100 0
-31 53 -100 0
-38 53 -100 0
-12 56 -100 0
16 -66 -100 0
-30 71 -100 0
5 -53 100 0
-38 62 100 0
-21 -66 100 0
23 -67 100 0
-10 -72 100 0
-2 -78 100 0
9 -79 100 0
18 -46 -101 0
22 -46 -101 0
-19 -49 -101 0
23 -61 -101 0
21 -69 -101 0
-20 42 101 0
-2 46 101 0
8 47 101 0
-23 53 101 0
26 59 101 0
-6 -73 101 0
-3 -78 101 0
-26 -78 101 0
-17 -42 -102 0
24 -72 -102 0
12 -42 102 0
16 44 102 0
-1 53 102 0
35 -46 -103 0
-13 56 -103 0
29 56 -103 0
35 64 -103 0
27 67 -103 0
4 52 103 0
14 52 103 0
9 -53 103 0
-38 -58 103 0
24 58 103 0
-9 -64 103 0
19 -70 103 0
24 -79 103 0
-28 -79 103 0
-7 -43 -104 0
-25 46 -104 0
-4 -58 -104 0
37 -64 -104 0
-28 42 104 0
-10 45 104 0
10 51 104 0
-13 56 104 0
35 69 104 0
5 -75 104 0
-27 54 -105 0
-18 -56 -105 0
-26 61 -105 0
-16 65 -105 0
23 -69 -105 0
4 76 -105 0
35 -61 105 0
-20 73 105 0
-14 -46 -106 0
-29 50 -106 0
-32 56 -106 0
24 78 -106 0
20 80 -106 0
-2 45 106 0
-29 47 106 0
-10 48 106 0
-8 -52 106 0
-28 59 106 0
-18 68 106 0
-20 -79 106 0
29 43 -107 0
-21 -44 -107 0
-30 -51 -107 0
23 53 -107 0
-11 -58 -107 0
20 -61 -107 0
27 -67 -107 0
-13 -70 -107 0
1 74 -107 0
24 -46 107 0
-22 50 107 0
16 66 107 0
36 -75 107 0
23 51 -108 0
-38 57 -108 0
8 58 -108 0
17 -66 -108 0
-23 -69 -108 0
3 45 108 0
15 65 108 0
2 67 108 0
-39 -71 108 0
13 50 -109 0
7 -55 -109 0
21 61 -109 0
15 69 -109 0
25 52 109 0
21 -53 109 0
-30 43 -110 0
-11 -46 -110 0
-5 -49 -110 0
11 -55 -110 0
-19 44 110 0
-28 53 110 0
-21 -60 110 0
-19 -69 110 0
24 -79 110 0
17 -41 -111 0
-12 -43 -111 0
-5 43 -111 0
37 55 -111 0
11 -67 -111 0
23 -72 -111 0
15 -58 111 0
7 59 111 0
-11 65 111 0
-36 41 -112 0
9 -49 -112 0
27 63 -112 0
-10 -66 -112 0
39 -70 -112 0
38 -41 112 0
20 43 112 0
11 -46 112 0
-30 -61 112 0
16 61 112 0
-27 70 112 0
-18 -71 112 0
23 -73 112 0
11 78 112 0
35 47 -113 0
-20 -55 -113 0
21 60 -113 0
-11 62 -113 0
-39 -64 -113 0
-32 70 -113 0
-14 -48 113 0
-19 -56 113 0
10 57 113 0
-25 -59 113 0
-39 59 113 0
31 76 113 0
40 -80 113 0
-2 55 -114 0
37 -58 -114 0
9 -61 -114 0
-36 63 -114 0
-10 71 -114 0
21 50 114 0
-17 67 114 0
-40 68 114 0
-8 -77 114 0
-13 48 -115 0
32 51 -115 0
-40 -71 -115 0
-26 -72 -115 0
1 -74 -115 0
-18 -41 115 0
-25 51 115 0
18 -52 115 0
37 -53 115 0
6 53 115 0
33 53 115 0
35 -54 115 0
16 -64 115 0
36 67 115 0
-35 -78 115 0
-31 41 -116 0
20 45 -116 0
-19 -59 -116 0
-10 -75 -116 0
-21 -41 116 0
33 -43 116 0
32 44 116 0
-6 46 116 0
-18 48 116 0
-15 -52 116 0
-3 54 116 0
23 -63 116 0
21 -65 116 0
-34 -65 116 0
-2 -70 116 0
-33 -46 -117 0
21 46 -117 0
35 51 -117 0
32 59 -117 0
-37 -76 -117 0
23 79 -117 0
18 -80 -117 0
37 54 117 0
30 -56 117 0
-8 -58 117 0
19 58 117 0
-2 67 117 0
-16 68 117 0
37 74 117 0
-23 78 117 0
-13 -45 -118 0
34 45 -118 0
30 60 -118 0
31 -68 -118 0
-29 -70 -118 0
11 -76 -118 0
32 79 -118 0
-40 -67 118 0
-10 -68 118 0
-21 76 118 0
-17 -42 -119 0
-21 -45 -119 0
-14 -55 -119 0
40 -59 -119 0
10 62 -119 0
9 -65 -119 0
15 -72 -119 0
23 77 -119 0
39 -41 119 0
-19 -49 119 0
18 -55 119 0
-39 68 119 0
4 -54 -120 0
-7 -55 -120 0
-35 -56 -120 0
-7 -62 -120 0
-5 69 -120 0
37 -71 -120 0
-8 73 -120 0
3 77 -120 0
4 -79 -120 0
26 -79 -120 0
-33 -67 120 0
6 74 120 0
10 74 120 0
-14 -79 120 0
